hw5/hw5_4D.dat
set SITES:= 1,2,3,4,5;
set LOCATIONS:= 1,2,3,4,5,6,7,8;
param W = 0.5;
param M = 2000;

param Tq = 1700;
param Tc = 300;


param fixed_cost:=
1 160
2 49
3 246
4 86
5 100;

param var_cost:
  1 2 3 4 5 6 7 8:=
1 0 0.4 0.8 0.4 0.8 0.3 0.6 0.5 
2 0.7 0 0.8 0.4 0.4 0.5 0.3 0.6 
3 0.6 0.4 0 0.5 0.4 0.6 0.5 0.6 
4 0.6 0.4 0.9 0 0.4 0.4 0.2 0.4
5 0.9 0.4 0.7 0.4 0 0.7 0.3 0.5;

param audit_req:=
1 400
2 100
3 300
4 100
5 200
6 300
7 200
8 400;

param quality_score:
  1 2 3 4 5 6 7 8:=
1 0.8 0.7 0.6 0.75 0.24 0.84 0.23 0.45 
2 0.65 0.85 0.55 0.70 0.32 0.28 0.40 0.55
3 0.70 0.80 0.90 0.65 0.35 0.34 0.56 0.40 
4 0.60 0.75 0.50 0.85 0.44 0.80 0.20 0.35 
5 0.20 0.85 0.25 0.45 0.60 0.23 0.34 0.70;
