hw5/hw5_4D.out
x [*,*] (tr)
:   1    2    3    4    5    :=
1   0   400   0     0   0
2   0     0   0   100   0
3   0     0   0   300   0
4   0   100   0     0   0
5   0     0   0   200   0
6   0     0   0   300   0
7   0   200   0     0   0
8   0   400   0     0   0
;

y [*] :=
1  0
2  1
3  0
4  1
5  0
;

penalty_c = -695
penalty_q = 517
total_score = -89

